NAME : portcgen-17-12
COMMENT : portcgen N=17, seed=12
TYPE : TSP
DIMENSION : 17
EDGE_WEIGHT_TYPE : EUC_2D
NODE_COORD_SECTION
1 122045 249244
2 3133 37548
3 -220758 -109573
4 157754 291712
5 -359040 -278521
6 -49415 129868
7 -16432 480989
8 337611 187211
9 189847 257810
10 135292 -12355
11 299106 -19176
12 365202 302407
13 147459 -240751
14 105167 -26053
15 -316985 343053
16 457634 670662
17 -371645 -221763
